
BT phonons xc=PBE

&INPUTPH
max_seconds = 32400,
tr2_ph=1.0d-12,
prefix='bto',
ldisp=.true.,
nq1=4, 
nq2=4, 
nq3=4
outdir='./',
fildyn='bto.dyn',
 /
