 &input
        fildyn='bto.dyn',
        zasr='simple',
        flfrc='bto.fc'
/
